    ISYM = 0
    ENCUT = 400
    ISMEAR = -5
    EDIFF = 1E-4
    KPAR = 4
    ISTART = 0
    PREC = Normal
    ICHARG = 11
    LREAL = .FALSE.
    SAXIS = 1 1 1
    GGA_COMPAT = .FALSE.
    NPAR = 8
    LORBIT = 11
    LSORBIT = .FALSE.
    LMAXMIX = 2
    ALGO = Normal
    NBANDS = 120
