Pb S
1
32.0283	0.0	0.0
0.0	32.0283	0.0
0.0	0.0	32.0283
55  38
Direct
0.312223 0.406112 0.406112
0.406112 0.312223 0.406112
0.406112 0.406112 0.312223
0.312223 0.312223 0.5
0.312223 0.406112 0.593888
0.406112 0.312223 0.593888
0.406112 0.406112 0.5
0.406112 0.406112 0.687777
0.312223 0.5 0.312223
0.312223 0.593888 0.406112
0.406112 0.5 0.406112
0.406112 0.593888 0.312223
0.312223 0.5 0.5
0.312223 0.593888 0.593888
0.406112 0.5 0.593888
0.406112 0.593888 0.5
0.312223 0.5 0.687777
0.406112 0.593888 0.687777
0.406112 0.687777 0.406112
0.312223 0.687777 0.5
0.406112 0.687777 0.593888
0.5 0.312223 0.312223
0.5 0.406112 0.406112
0.593888 0.312223 0.406112
0.593888 0.406112 0.312223
0.5 0.312223 0.5
0.5 0.406112 0.593888
0.593888 0.312223 0.593888
0.593888 0.406112 0.5
0.5 0.312223 0.687777
0.593888 0.406112 0.687777
0.5 0.5 0.312223
0.5 0.593888 0.406112
0.593888 0.5 0.406112
0.593888 0.593888 0.312223
0.5 0.5 0.5
0.5 0.593888 0.593888
0.593888 0.5 0.593888
0.593888 0.593888 0.5
0.5 0.5 0.687777
0.593888 0.593888 0.687777
0.5 0.687777 0.312223
0.593888 0.687777 0.406112
0.5 0.687777 0.5
0.593888 0.687777 0.593888
0.5 0.687777 0.687777
0.687777 0.406112 0.406112
0.687777 0.312223 0.5
0.687777 0.406112 0.593888
0.687777 0.5 0.312223
0.687777 0.593888 0.406112
0.687777 0.5 0.5
0.687777 0.593888 0.593888
0.687777 0.5 0.687777
0.687777 0.687777 0.5
0.406112 0.406112 0.406112
0.406112 0.312223 0.5
0.406112 0.406112 0.593888
0.312223 0.406112 0.5
0.406112 0.5 0.312223
0.406112 0.593888 0.406112
0.312223 0.5 0.406112
0.406112 0.5 0.5
0.406112 0.593888 0.593888
0.312223 0.5 0.593888
0.312223 0.593888 0.5
0.406112 0.5 0.687777
0.406112 0.687777 0.5
0.593888 0.406112 0.406112
0.5 0.312223 0.406112
0.5 0.406112 0.312223
0.593888 0.312223 0.5
0.593888 0.406112 0.593888
0.5 0.312223 0.593888
0.5 0.406112 0.5
0.5 0.406112 0.687777
0.593888 0.5 0.312223
0.593888 0.593888 0.406112
0.5 0.5 0.406112
0.5 0.593888 0.312223
0.593888 0.5 0.5
0.593888 0.593888 0.593888
0.5 0.5 0.593888
0.5 0.593888 0.5
0.593888 0.5 0.687777
0.5 0.593888 0.687777
0.5 0.687777 0.406112
0.593888 0.687777 0.5
0.5 0.687777 0.593888
0.687777 0.406112 0.5
0.687777 0.5 0.406112
0.687777 0.5 0.593888
0.687777 0.593888 0.5