    ISYM = 0
    ENCUT = 400
    EDIFF = 1E-5
    ISMEAR = 0
    NSW = 300
    KPAR = 1
    ISTART = 0
    PREC = Normal
    ICHARG = 2
    EDIFFG = -0.02
    LREAL = On
    IBRION = 2
    ISPIN = 1
    NPAR = 120
    LORBIT = 11
    NSIM = 4
    ISIF = 0
    ALGO = Normal
    SIGMA = 0.02
    POTIM = 0.5
