    ISYM = 0
    ENCUT = 300
    ISMEAR = 0
    EDIFF = 1e-4
    KPAR = 1
    ISTART = 0
    PREC = Normal
    ICHARG = 2
    LREAL = Auto
    LORBIT = 11
    EDIFFG = -0.03
    NCORE = 18
    ISPIN = 1
    LSORBIT = .FALSE.
    SIGMA = 0.01
    ISIF = 1
    ALGO = Normal
    POTIM = 0.1
