Pb43S38I8.cf-1
1
27.9756	0.0	0.0
0.0	27.9756	0.0
0.0	0.0	30.9756
43  38  8
Direct
-0.21404 -0.10702 -0.096649945
-0.21404 -0.10702 0.096649945
-0.21404 0.0 0.0
-0.21404 0.10702 -0.096649945
-0.21404 0.10702 0.096649945
-0.10702 -0.21404 -0.096649945
-0.10702 -0.21404 0.096649945
-0.10702 -0.10702 -0.19331
-0.10702 -0.10702 0.0
-0.10702 -0.10702 0.19331
-0.10702 0.0 -0.096649945
-0.10702 0.0 0.096649945
-0.10702 0.10702 -0.19331
-0.10702 0.10702 0.0
-0.10702 0.10702 0.19331
-0.10702 0.21404 -0.096649945
-0.10702 0.21404 0.096649945
0.0 -0.21404 0.0
0.0 -0.10702 -0.096649945
0.0 -0.10702 0.096649945
0.0 0.0 -0.19331
0.0 0.0 0.0
0.0 0.0 0.19331
0.0 0.10702 -0.096649945
0.0 0.10702 0.096649945
0.0 0.21404 0.0
0.10702 -0.21404 -0.096649945
0.10702 -0.21404 0.096649945
0.10702 -0.10702 -0.19331
0.10702 -0.10702 0.0
0.10702 -0.10702 0.19331
0.10702 0.0 -0.096649945
0.10702 0.0 0.096649945
0.10702 0.10702 -0.19331
0.10702 0.10702 0.0
0.10702 0.10702 0.19331
0.10702 0.21404 -0.096649945
0.10702 0.21404 0.096649945
0.21404 -0.10702 -0.096649945
0.21404 -0.10702 0.096649945
0.21404 0.0 0.0
0.21404 0.10702 -0.096649945
0.21404 0.10702 0.096649945
-0.21404 -0.10702 0.0
-0.21404 0.0 -0.096649945
-0.21404 0.0 0.096649945
-0.21404 0.10702 0.0
-0.10702 -0.21404 0.0
-0.10702 -0.10702 -0.096649945
-0.10702 -0.10702 0.096649945
-0.10702 0.0 -0.19331
-0.10702 0.0 0.0
-0.10702 0.0 0.19331
-0.10702 0.10702 -0.096649945
-0.10702 0.10702 0.096649945
-0.10702 0.21404 0.0
0.0 -0.21404 -0.096649945
0.0 -0.21404 0.096649945
0.0 -0.10702 -0.19331
0.0 -0.10702 0.0
0.0 -0.10702 0.19331
0.0 0.0 -0.096649945
0.0 0.0 0.096649945
0.0 0.10702 -0.19331
0.0 0.10702 0.0
0.0 0.10702 0.19331
0.0 0.21404 -0.096649945
0.0 0.21404 0.096649945
0.10702 -0.21404 0.0
0.10702 -0.10702 -0.096649945
0.10702 -0.10702 0.096649945
0.10702 0.0 -0.19331
0.10702 0.0 0.0
0.10702 0.0 0.19331
0.10702 0.10702 -0.096649945
0.10702 0.10702 0.096649945
0.10702 0.21404 0.0
0.21404 -0.10702 0.0
0.21404 0.0 -0.096649945
0.21404 0.0 0.096649945
0.21404 0.10702 0.0
0.10702 0.32126984 0.096649945
0.18397 0.18397 -0.1661499
0.32126984 0.10702 -0.096649945
0.0 0.0 0.2901598
0.32126984 -0.10702 -0.096649945
-0.18397 0.18397 -0.1661499
0.0 0.0 -0.2901598
-0.10702 0.32126984 0.096649945