    ISYM = 0
    ENCUT = 400
    LCHARG = .TRUE.
    EDIFF = 1E-4
    ISMEAR = -5
    NSW = 60
    KPAR = 1
    ISTART = 0
    PREC = Normal
    ICHARG = 2
    LREAL = .FALSE.
    EDIFFG = 1E-3
    NCORE = 18
    IBRION = 2
    ISPIN = 1
    LORBIT = 11
    LSORBIT = .FALSE.
    ISIF = 3
    ALGO = Normal
    LWAVE = .TRUE.
    POTIM = 0.5
