Pb4 S4
1
6.01252	0.0	0.0
0.0	6.01252	0.0
0.0	0.0	6.01252
4  4
Direct
0.0 0.0 0.0
0.0 0.5 0.5
0.5 0.0 0.5
0.5 0.5 0.0
0.5 0.0 0.0
0.5 0.5 0.5
0.0 0.0 0.5
0.0 0.5 0.0